\ENCODING=ISO-8859-1
\Problem name: ilog.cplex

Minimize
 obj1: 97877 x1 + 109025 x2 + 97145 x3 + 91281 x4 + 108330 x5 + 90487 x6
       + 102463 x7 + 107905 x8 + 94036 x9 + 99598 x10 + 99347 x11 + 104537 x12
       + 92003 x13 + 92553 x14 + 102312 x15 + 101107 x16 + 109220 x17
       + 91899 x18 + 98826 x19 + 100412 x20 + 106316 x21 + 102359 x22
       + 92883 x23 + 101891 x24 + 95492 x25 + 96798 x26 + 95240 x27 + 97620 x28
       + 104886 x29 + 100616 x30 + 103555 x31 + 101514 x32 + 97537 x33
       + 108367 x34 + 101887 x35 + 90993 x36 + 94645 x37 + 102516 x38
       + 90933 x39 + 109306 x40 + 100083 x41 + 90948 x42 + 97901 x43
       + 106267 x44 + 95891 x45 + 97268 x46 + 108050 x47 + 105311 x48
       + 97007 x49 + 105854 x50 + 102287 x51 + 100944 x52 + 99324 x53
       + 90330 x54 + 99005 x55 + 94187 x56 + 96397 x57 + 97989 x58 + 95868 x59
       + 94540 x60 + 101411 x61 + 92284 x62 + 95855 x63 + 109038 x64
       + 101038 x65 + 108165 x66 + 97183 x67 + 94809 x68 + 93971 x69
       + 108689 x70 + 94910 x71 + 104715 x72 + 90057 x73 + 96012 x74
       + 107417 x75 + 99153 x76 + 100444 x77 + 106809 x78 + 96188 x79
       + 107486 x80 + 106381 x81 + 99566 x82 + 90877 x83 + 91961 x84
       + 90714 x85 + 95909 x86 + 105937 x87 + 91989 x88 + 93186 x89 + 98463 x90
       + 99901 x91 + 107302 x92 + 108318 x93 + 93711 x94 + 103940 x95
       + 94791 x96 + 102958 x97 + 99855 x98 + 92395 x99 + 105695 x100
       + 97362 x101 + 90333 x102 + 99411 x103 + 95828 x104 + 96916 x105
       + 109238 x106 + 99274 x107 + 109124 x108 + 92956 x109 + 106299 x110
       + 103098 x111 + 96507 x112 + 105803 x113 + 94257 x114 + 104542 x115
       + 107130 x116 + 96819 x117 + 96329 x118 + 100451 x119 + 97971 x120
       + 102990 x121 + 108180 x122 + 108989 x123 + 99030 x124 + 104199 x125
       + 90034 x126 + 105029 x127 + 97320 x128 + 107550 x129 + 98831 x130
       + 90190 x131 + 105487 x132 + 105597 x133 + 94906 x134 + 102760 x135
       + 93315 x136 + 93476 x137 + 102811 x138 + 106184 x139 + 103289 x140
       + 93728 x141 + 91738 x142 + 93889 x143 + 105076 x144 + 96971 x145
       + 107399 x146 + 92923 x147 + 107967 x148 + 101623 x149 + 94281 x150
       + 94871 x151 + 93229 x152 + 109630 x153 + 96351 x154 + 100742 x155
       + 106338 x156 + 96155 x157 + 102496 x158 + 99314 x159 + 95499 x160
       + 93340 x161 + 97788 x162 + 109678 x163 + 96600 x164 + 103697 x165
       + 98861 x166 + 91001 x167 + 105321 x168 + 100352 x169 + 96911 x170
       + 97881 x171 + 98445 x172 + 106276 x173 + 102905 x174 + 108419 x175
       + 98239 x176 + 91566 x177 + 93046 x178 + 102817 x179 + 97882 x180
       + 104118 x181 + 95985 x182 + 103025 x183 + 106847 x184 + 99489 x185
       + 94547 x186 + 97212 x187 + 101761 x188 + 96902 x189 + 101612 x190
       + 106802 x191 + 100426 x192 + 100064 x193 + 92339 x194 + 108349 x195
       + 94574 x196 + 103819 x197 + 93039 x198 + 97694 x199 + 100325 x200
       + 94464 x201 + 104857 x202 + 97277 x203 + 103013 x204 + 99287 x205
       + 105682 x206 + 105357 x207 + 97241 x208 + 99171 x209 + 107138 x210
       + 97493 x211 + 105868 x212 + 97925 x213 + 105744 x214 + 101476 x215
       + 108684 x216 + 97590 x217 + 105130 x218 + 100741 x219 + 104728 x220
       + 96551 x221 + 102378 x222 + 94117 x223 + 107125 x224 + 107667 x225
       + 108567 x226 + 102972 x227 + 101163 x228 + 105562 x229 + 103965 x230
       + 92499 x231 + 97755 x232 + 106329 x233 + 96900 x234 + 108296 x235
       + 95872 x236 + 102584 x237 + 94596 x238 + 99377 x239 + 109588 x240
       + 102144 x241 + 104118 x242 + 104429 x243 + 98049 x244 + 109576 x245
       + 102065 x246 + 99386 x247 + 99966 x248 + 106419 x249 + 70479 x250
       + 191425 x251 + 218167 x252 + 213790 x253 + 214423 x254 + 210988 x255
       + 193451 x256 + 211027 x257 + 182233 x258 + 204386 x259 + 196603 x260
       + 201930 x261 + 194992 x262 + 187825 x263 + 203012 x264 + 207711 x265
       + 216613 x266 + 192283 x267 + 181001 x268 + 187281 x269 + 210909 x270
       + 193169 x271 + 210748 x272 + 194165 x273 + 212668 x274 + 201084 x275
       + 185859 x276 + 202068 x277 + 207421 x278 + 187744 x279 + 196723 x280
       + 182824 x281 + 191068 x282 + 206470 x283 + 217266 x284 + 202744 x285
       + 184911 x286 + 195758 x287 + 213054 x288 + 189314 x289 + 219852 x290
       + 207282 x291 + 218709 x292 + 209944 x293 + 215383 x294 + 216313 x295
       + 216414 x296 + 197933 x297 + 184703 x298 + 212836 x299 + 105523 x300
Subject To
 c1:   - x11 + x38 + x47  = 0
 c2:   - x61 + x88 + x97  = 0
 c3:   - x111 + x138 + x147  = 0
 c4:   - x161 + x188 + x197  = 0
 c5:   - x211 + x238 + x247  = 0
 c6:   - x1 + x13 + x17 + x20 + x31 - x33 - x37 - x40  = 1
 c7:   - x51 + x63 + x67 + x70 + x81 - x83 - x87 - x90  = 0
 c8:   - x101 + x113 + x117 + x120 + x131 - x133 - x137 - x140  = 0
 c9:   - x151 + x163 + x167 + x170 + x181 - x183 - x187 - x190  = 0
 c10:  - x201 + x213 + x217 + x220 + x231 - x233 - x237 - x240  = 0
 c11:  x10 - x13 + x14 + x16 - x19 - x22 + x43 - x47  = 0
 c12:  x60 - x63 + x64 + x66 - x69 - x72 + x93 - x97  = 0
 c13:  x110 - x113 + x114 + x116 - x119 - x122 + x143 - x147  = 0
 c14:  x160 - x163 + x164 + x166 - x169 - x172 + x193 - x197  = 0
 c15:  x210 - x213 + x214 + x216 - x219 - x222 + x243 - x247  = 0
 c16:  x3 + x7 + x12 - x16 - x30 + x33 - x41 + x46 - x50  = 0
 c17:  x53 + x57 + x62 - x66 - x80 + x83 - x91 + x96 - x100  = 0
 c18:  x103 + x107 + x112 - x116 - x130 + x133 - x141 + x146 - x150  = 0
 c19:  x153 + x157 + x162 - x166 - x180 + x183 - x191 + x196 - x200  = 0
 c20:  x203 + x207 + x212 - x216 - x230 + x233 - x241 + x246 - x250  = 0
 c21:  - x3 - x17 + x24 + x28 + x36 + x42 - x43  = 0
 c22:  - x53 - x67 + x74 + x78 + x86 + x92 - x93  = 1
 c23:  - x103 - x117 + x124 + x128 + x136 + x142 - x143  = 0
 c24:  - x153 - x167 + x174 + x178 + x186 + x192 - x193  = 0
 c25:  - x203 - x217 + x224 + x228 + x236 + x242 - x243  = 0
 c26:  x2 - x7 + x21 - x27 + x40 - x42  = 0
 c27:  x52 - x57 + x71 - x77 + x90 - x92  = -1
 c28:  x102 - x107 + x121 - x127 + x140 - x142  = 1
 c29:  x152 - x157 + x171 - x177 + x190 - x192  = 0
 c30:  x202 - x207 + x221 - x227 + x240 - x242  = 0
 c31:  x9 + x11 - x18 - x21 + x22 - x24 + x35  = 0
 c32:  x59 + x61 - x68 - x71 + x72 - x74 + x85  = 0
 c33:  x109 + x111 - x118 - x121 + x122 - x124 + x135  = 0
 c34:  x159 + x161 - x168 - x171 + x172 - x174 + x185  = 0
 c35:  x209 + x211 - x218 - x221 + x222 - x224 + x235  = 0
 c36:  - x9 - x12 - x14 - x23 + x27 - x29 - x49  = 0
 c37:  - x59 - x62 - x64 - x73 + x77 - x79 - x99  = 0
 c38:  - x109 - x112 - x114 - x123 + x127 - x129 - x149  = 0
 c39:  - x159 - x162 - x164 - x173 + x177 - x179 - x199  = 0
 c40:  - x209 - x212 - x214 - x223 + x227 - x229 - x249  = -1
 c41:  - x4 + x26 + x30 + x32 - x45  = 0
 c42:  - x54 + x76 + x80 + x82 - x95  = 0
 c43:  - x104 + x126 + x130 + x132 - x145  = 0
 c44:  - x154 + x176 + x180 + x182 - x195  = 0
 c45:  - x204 + x226 + x230 + x232 - x245  = 1
 c46:  x4 + x6 - x15 + x23 - x31 + x34 + x48  = -1
 c47:  x54 + x56 - x65 + x73 - x81 + x84 + x98  = 0
 c48:  x104 + x106 - x115 + x123 - x131 + x134 + x148  = 0
 c49:  x154 + x156 - x165 + x173 - x181 + x184 + x198  = 0
 c50:  x204 + x206 - x215 + x223 - x231 + x234 + x248  = 0
 c51:  - x10 + x15 - x20 - x35 - x36 + x39 + x44  = 0
 c52:  - x60 + x65 - x70 - x85 - x86 + x89 + x94  = 0
 c53:  - x110 + x115 - x120 - x135 - x136 + x139 + x144  = 0
 c54:  - x160 + x165 - x170 - x185 - x186 + x189 + x194  = 0
 c55:  - x210 + x215 - x220 - x235 - x236 + x239 + x244  = 0
 c56:  - x8 + x25 + x29 + x37 - x38 - x44  = 0
 c57:  - x58 + x75 + x79 + x87 - x88 - x94  = 0
 c58:  - x108 + x125 + x129 + x137 - x138 - x144  = -1
 c59:  - x158 + x175 + x179 + x187 - x188 - x194  = 1
 c60:  - x208 + x225 + x229 + x237 - x238 - x244  = 0
 c61:  x8 + x18 - x28 - x32 - x46 - x48 + x50  = 0
 c62:  x58 + x68 - x78 - x82 - x96 - x98 + x100  = 0
 c63:  x108 + x118 - x128 - x132 - x146 - x148 + x150  = 0
 c64:  x158 + x168 - x178 - x182 - x196 - x198 + x200  = -1
 c65:  x208 + x218 - x228 - x232 - x246 - x248 + x250  = 0
 c66:  - x5 - x6 + x19 - x25 + x41 + x49  = 0
 c67:  - x55 - x56 + x69 - x75 + x91 + x99  = 0
 c68:  - x105 - x106 + x119 - x125 + x141 + x149  = 0
 c69:  - x155 - x156 + x169 - x175 + x191 + x199  = 0
 c70:  - x205 - x206 + x219 - x225 + x241 + x249  = 0
 c71:  x1 - x2 + x5 - x26 - x34 - x39 + x45  = 0
 c72:  x51 - x52 + x55 - x76 - x84 - x89 + x95  = 0
 c73:  x101 - x102 + x105 - x126 - x134 - x139 + x145  = 0
 c74:  x151 - x152 + x155 - x176 - x184 - x189 + x195  = 0
 c75:  x201 - x202 + x205 - x226 - x234 - x239 + x245  = 0
 c76:  4 x1 + 4 x51 + 4 x101 + 4 x151 + 4 x201 - 2 x251 <= 0
 c77:  4 x2 + 4 x52 + 4 x102 + 4 x152 + 4 x202 - 2 x252 <= 0
 c78:  4 x3 + 4 x53 + 4 x103 + 4 x153 + 4 x203 - 2 x253 <= 0
 c79:  4 x4 + 4 x54 + 4 x104 + 4 x154 + 4 x204 - 2 x254 <= 0
 c80:  4 x5 + 4 x55 + 4 x105 + 4 x155 + 4 x205 - 2 x255 <= 0
 c81:  4 x6 + 4 x56 + 4 x106 + 4 x156 + 4 x206 - 2 x256 <= 0
 c82:  4 x7 + 4 x57 + 4 x107 + 4 x157 + 4 x207 - 2 x257 <= 0
 c83:  4 x8 + 4 x58 + 4 x108 + 4 x158 + 4 x208 - 2 x258 <= 0
 c84:  4 x9 + 4 x59 + 4 x109 + 4 x159 + 4 x209 - 2 x259 <= 0
 c85:  4 x10 + 4 x60 + 4 x110 + 4 x160 + 4 x210 - 2 x260 <= 0
 c86:  4 x11 + 4 x61 + 4 x111 + 4 x161 + 4 x211 - 2 x261 <= 0
 c87:  4 x12 + 4 x62 + 4 x112 + 4 x162 + 4 x212 - 2 x262 <= 0
 c88:  4 x13 + 4 x63 + 4 x113 + 4 x163 + 4 x213 - 2 x263 <= 0
 c89:  4 x14 + 4 x64 + 4 x114 + 4 x164 + 4 x214 - 2 x264 <= 0
 c90:  4 x15 + 4 x65 + 4 x115 + 4 x165 + 4 x215 - 2 x265 <= 0
 c91:  4 x16 + 4 x66 + 4 x116 + 4 x166 + 4 x216 - 2 x266 <= 0
 c92:  4 x17 + 4 x67 + 4 x117 + 4 x167 + 4 x217 - 2 x267 <= 0
 c93:  4 x18 + 4 x68 + 4 x118 + 4 x168 + 4 x218 - 2 x268 <= 0
 c94:  4 x19 + 4 x69 + 4 x119 + 4 x169 + 4 x219 - 2 x269 <= 0
 c95:  4 x20 + 4 x70 + 4 x120 + 4 x170 + 4 x220 - 2 x270 <= 0
 c96:  4 x21 + 4 x71 + 4 x121 + 4 x171 + 4 x221 - 2 x271 <= 0
 c97:  4 x22 + 4 x72 + 4 x122 + 4 x172 + 4 x222 - 2 x272 <= 0
 c98:  4 x23 + 4 x73 + 4 x123 + 4 x173 + 4 x223 - 2 x273 <= 0
 c99:  4 x24 + 4 x74 + 4 x124 + 4 x174 + 4 x224 - 2 x274 <= 0
 c100: 4 x25 + 4 x75 + 4 x125 + 4 x175 + 4 x225 - 2 x275 <= 0
 c101: 4 x26 + 4 x76 + 4 x126 + 4 x176 + 4 x226 - 2 x276 <= 0
 c102: 4 x27 + 4 x77 + 4 x127 + 4 x177 + 4 x227 - 2 x277 <= 0
 c103: 4 x28 + 4 x78 + 4 x128 + 4 x178 + 4 x228 - 2 x278 <= 0
 c104: 4 x29 + 4 x79 + 4 x129 + 4 x179 + 4 x229 - 2 x279 <= 0
 c105: 4 x30 + 4 x80 + 4 x130 + 4 x180 + 4 x230 - 2 x280 <= 0
 c106: 4 x31 + 4 x81 + 4 x131 + 4 x181 + 4 x231 - 2 x281 <= 0
 c107: 4 x32 + 4 x82 + 4 x132 + 4 x182 + 4 x232 - 2 x282 <= 0
 c108: 4 x33 + 4 x83 + 4 x133 + 4 x183 + 4 x233 - 2 x283 <= 0
 c109: 4 x34 + 4 x84 + 4 x134 + 4 x184 + 4 x234 - 2 x284 <= 0
 c110: 4 x35 + 4 x85 + 4 x135 + 4 x185 + 4 x235 - 2 x285 <= 0
 c111: 4 x36 + 4 x86 + 4 x136 + 4 x186 + 4 x236 - 2 x286 <= 0
 c112: 4 x37 + 4 x87 + 4 x137 + 4 x187 + 4 x237 - 2 x287 <= 0
 c113: 4 x38 + 4 x88 + 4 x138 + 4 x188 + 4 x238 - 2 x288 <= 0
 c114: 4 x39 + 4 x89 + 4 x139 + 4 x189 + 4 x239 - 2 x289 <= 0
 c115: 4 x40 + 4 x90 + 4 x140 + 4 x190 + 4 x240 - 2 x290 <= 0
 c116: 4 x41 + 4 x91 + 4 x141 + 4 x191 + 4 x241 - 2 x291 <= 0
 c117: 4 x42 + 4 x92 + 4 x142 + 4 x192 + 4 x242 - 2 x292 <= 0
 c118: 4 x43 + 4 x93 + 4 x143 + 4 x193 + 4 x243 - 2 x293 <= 0
 c119: 4 x44 + 4 x94 + 4 x144 + 4 x194 + 4 x244 - 2 x294 <= 0
 c120: 4 x45 + 4 x95 + 4 x145 + 4 x195 + 4 x245 - 2 x295 <= 0
 c121: 4 x46 + 4 x96 + 4 x146 + 4 x196 + 4 x246 - 2 x296 <= 0
 c122: 4 x47 + 4 x97 + 4 x147 + 4 x197 + 4 x247 - 2 x297 <= 0
 c123: 4 x48 + 4 x98 + 4 x148 + 4 x198 + 4 x248 - 2 x298 <= 0
 c124: 4 x49 + 4 x99 + 4 x149 + 4 x199 + 4 x249 - 2 x299 <= 0
 c125: 4 x50 + 4 x100 + 4 x150 + 4 x200 + 4 x250 - 2 x300 <= 0
Bounds
 0 <= x1 <= 1
 0 <= x2 <= 1
 0 <= x3 <= 1
 0 <= x4 <= 1
 0 <= x5 <= 1
 0 <= x6 <= 1
 0 <= x7 <= 1
 0 <= x8 <= 1
 0 <= x9 <= 1
 0 <= x10 <= 1
 0 <= x11 <= 1
 0 <= x12 <= 1
 0 <= x13 <= 1
 0 <= x14 <= 1
 0 <= x15 <= 1
 0 <= x16 <= 1
 0 <= x17 <= 1
 0 <= x18 <= 1
 0 <= x19 <= 1
 0 <= x20 <= 1
 0 <= x21 <= 1
 0 <= x22 <= 1
 0 <= x23 <= 1
 0 <= x24 <= 1
 0 <= x25 <= 1
 0 <= x26 <= 1
 0 <= x27 <= 1
 0 <= x28 <= 1
 0 <= x29 <= 1
 0 <= x30 <= 1
 0 <= x31 <= 1
 0 <= x32 <= 1
 0 <= x33 <= 1
 0 <= x34 <= 1
 0 <= x35 <= 1
 0 <= x36 <= 1
 0 <= x37 <= 1
 0 <= x38 <= 1
 0 <= x39 <= 1
 0 <= x40 <= 1
 0 <= x41 <= 1
 0 <= x42 <= 1
 0 <= x43 <= 1
 0 <= x44 <= 1
 0 <= x45 <= 1
 0 <= x46 <= 1
 0 <= x47 <= 1
 0 <= x48 <= 1
 0 <= x49 <= 1
 0 <= x50 <= 1
 0 <= x51 <= 1
 0 <= x52 <= 1
 0 <= x53 <= 1
 0 <= x54 <= 1
 0 <= x55 <= 1
 0 <= x56 <= 1
 0 <= x57 <= 1
 0 <= x58 <= 1
 0 <= x59 <= 1
 0 <= x60 <= 1
 0 <= x61 <= 1
 0 <= x62 <= 1
 0 <= x63 <= 1
 0 <= x64 <= 1
 0 <= x65 <= 1
 0 <= x66 <= 1
 0 <= x67 <= 1
 0 <= x68 <= 1
 0 <= x69 <= 1
 0 <= x70 <= 1
 0 <= x71 <= 1
 0 <= x72 <= 1
 0 <= x73 <= 1
 0 <= x74 <= 1
 0 <= x75 <= 1
 0 <= x76 <= 1
 0 <= x77 <= 1
 0 <= x78 <= 1
 0 <= x79 <= 1
 0 <= x80 <= 1
 0 <= x81 <= 1
 0 <= x82 <= 1
 0 <= x83 <= 1
 0 <= x84 <= 1
 0 <= x85 <= 1
 0 <= x86 <= 1
 0 <= x87 <= 1
 0 <= x88 <= 1
 0 <= x89 <= 1
 0 <= x90 <= 1
 0 <= x91 <= 1
 0 <= x92 <= 1
 0 <= x93 <= 1
 0 <= x94 <= 1
 0 <= x95 <= 1
 0 <= x96 <= 1
 0 <= x97 <= 1
 0 <= x98 <= 1
 0 <= x99 <= 1
 0 <= x100 <= 1
 0 <= x101 <= 1
 0 <= x102 <= 1
 0 <= x103 <= 1
 0 <= x104 <= 1
 0 <= x105 <= 1
 0 <= x106 <= 1
 0 <= x107 <= 1
 0 <= x108 <= 1
 0 <= x109 <= 1
 0 <= x110 <= 1
 0 <= x111 <= 1
 0 <= x112 <= 1
 0 <= x113 <= 1
 0 <= x114 <= 1
 0 <= x115 <= 1
 0 <= x116 <= 1
 0 <= x117 <= 1
 0 <= x118 <= 1
 0 <= x119 <= 1
 0 <= x120 <= 1
 0 <= x121 <= 1
 0 <= x122 <= 1
 0 <= x123 <= 1
 0 <= x124 <= 1
 0 <= x125 <= 1
 0 <= x126 <= 1
 0 <= x127 <= 1
 0 <= x128 <= 1
 0 <= x129 <= 1
 0 <= x130 <= 1
 0 <= x131 <= 1
 0 <= x132 <= 1
 0 <= x133 <= 1
 0 <= x134 <= 1
 0 <= x135 <= 1
 0 <= x136 <= 1
 0 <= x137 <= 1
 0 <= x138 <= 1
 0 <= x139 <= 1
 0 <= x140 <= 1
 0 <= x141 <= 1
 0 <= x142 <= 1
 0 <= x143 <= 1
 0 <= x144 <= 1
 0 <= x145 <= 1
 0 <= x146 <= 1
 0 <= x147 <= 1
 0 <= x148 <= 1
 0 <= x149 <= 1
 0 <= x150 <= 1
 0 <= x151 <= 1
 0 <= x152 <= 1
 0 <= x153 <= 1
 0 <= x154 <= 1
 0 <= x155 <= 1
 0 <= x156 <= 1
 0 <= x157 <= 1
 0 <= x158 <= 1
 0 <= x159 <= 1
 0 <= x160 <= 1
 0 <= x161 <= 1
 0 <= x162 <= 1
 0 <= x163 <= 1
 0 <= x164 <= 1
 0 <= x165 <= 1
 0 <= x166 <= 1
 0 <= x167 <= 1
 0 <= x168 <= 1
 0 <= x169 <= 1
 0 <= x170 <= 1
 0 <= x171 <= 1
 0 <= x172 <= 1
 0 <= x173 <= 1
 0 <= x174 <= 1
 0 <= x175 <= 1
 0 <= x176 <= 1
 0 <= x177 <= 1
 0 <= x178 <= 1
 0 <= x179 <= 1
 0 <= x180 <= 1
 0 <= x181 <= 1
 0 <= x182 <= 1
 0 <= x183 <= 1
 0 <= x184 <= 1
 0 <= x185 <= 1
 0 <= x186 <= 1
 0 <= x187 <= 1
 0 <= x188 <= 1
 0 <= x189 <= 1
 0 <= x190 <= 1
 0 <= x191 <= 1
 0 <= x192 <= 1
 0 <= x193 <= 1
 0 <= x194 <= 1
 0 <= x195 <= 1
 0 <= x196 <= 1
 0 <= x197 <= 1
 0 <= x198 <= 1
 0 <= x199 <= 1
 0 <= x200 <= 1
 0 <= x201 <= 1
 0 <= x202 <= 1
 0 <= x203 <= 1
 0 <= x204 <= 1
 0 <= x205 <= 1
 0 <= x206 <= 1
 0 <= x207 <= 1
 0 <= x208 <= 1
 0 <= x209 <= 1
 0 <= x210 <= 1
 0 <= x211 <= 1
 0 <= x212 <= 1
 0 <= x213 <= 1
 0 <= x214 <= 1
 0 <= x215 <= 1
 0 <= x216 <= 1
 0 <= x217 <= 1
 0 <= x218 <= 1
 0 <= x219 <= 1
 0 <= x220 <= 1
 0 <= x221 <= 1
 0 <= x222 <= 1
 0 <= x223 <= 1
 0 <= x224 <= 1
 0 <= x225 <= 1
 0 <= x226 <= 1
 0 <= x227 <= 1
 0 <= x228 <= 1
 0 <= x229 <= 1
 0 <= x230 <= 1
 0 <= x231 <= 1
 0 <= x232 <= 1
 0 <= x233 <= 1
 0 <= x234 <= 1
 0 <= x235 <= 1
 0 <= x236 <= 1
 0 <= x237 <= 1
 0 <= x238 <= 1
 0 <= x239 <= 1
 0 <= x240 <= 1
 0 <= x241 <= 1
 0 <= x242 <= 1
 0 <= x243 <= 1
 0 <= x244 <= 1
 0 <= x245 <= 1
 0 <= x246 <= 1
 0 <= x247 <= 1
 0 <= x248 <= 1
 0 <= x249 <= 1
 0 <= x250 <= 1
 0 <= x251 <= 1
 0 <= x252 <= 1
 0 <= x253 <= 1
 0 <= x254 <= 1
 0 <= x255 <= 1
 0 <= x256 <= 1
 0 <= x257 <= 1
 0 <= x258 <= 1
 0 <= x259 <= 1
 0 <= x260 <= 1
 0 <= x261 <= 1
 0 <= x262 <= 1
 0 <= x263 <= 1
 0 <= x264 <= 1
 0 <= x265 <= 1
 0 <= x266 <= 1
 0 <= x267 <= 1
 0 <= x268 <= 1
 0 <= x269 <= 1
 0 <= x270 <= 1
 0 <= x271 <= 1
 0 <= x272 <= 1
 0 <= x273 <= 1
 0 <= x274 <= 1
 0 <= x275 <= 1
 0 <= x276 <= 1
 0 <= x277 <= 1
 0 <= x278 <= 1
 0 <= x279 <= 1
 0 <= x280 <= 1
 0 <= x281 <= 1
 0 <= x282 <= 1
 0 <= x283 <= 1
 0 <= x284 <= 1
 0 <= x285 <= 1
 0 <= x286 <= 1
 0 <= x287 <= 1
 0 <= x288 <= 1
 0 <= x289 <= 1
 0 <= x290 <= 1
 0 <= x291 <= 1
 0 <= x292 <= 1
 0 <= x293 <= 1
 0 <= x294 <= 1
 0 <= x295 <= 1
 0 <= x296 <= 1
 0 <= x297 <= 1
 0 <= x298 <= 1
 0 <= x299 <= 1
 0 <= x300 <= 1
Binaries
 x251  x252  x253  x254  x255  x256  x257  x258  x259  x260  x261  x262  x263 
 x264  x265  x266  x267  x268  x269  x270  x271  x272  x273  x274  x275  x276 
 x277  x278  x279  x280  x281  x282  x283  x284  x285  x286  x287  x288  x289 
 x290  x291  x292  x293  x294  x295  x296  x297  x298  x299  x300 
End
